









































































































41 65 20 72 63 40 34 43 45 
37 23 51 35 2 64 48 12 30 
53 32 25 6 26 3 18 16 60 
13 55 76 52 24 66 61 46 21 
4 74 56 31 62 28 0 29 
8 7 59 69 39 57 17 49 
27 42 19 67 22 33 14 70 
68 38 36 71 50 15 11 1 44 
47 75 10 73 54 9 58 5 
